# Solution for model Optimization Model
# Objective value = 0
w_j0_k0_n0 2.5113999995593727e+04
w_j1_k0_n0 2.5113999991187462e+04
w_j2_k0_n0 0
w_j3_k0_n0 0
w_j4_k0_n0 0
w_j5_k0_n0 0
w_j6_k0_n0 0
w_j7_k0_n0 0
w_j8_k0_n0 0
w_j9_k0_n0 0
w_j0_k1_n0 0
w_j1_k1_n0 0
w_j2_k1_n0 0
w_j3_k1_n0 0
w_j4_k1_n0 0
w_j5_k1_n0 0
w_j6_k1_n0 0
w_j7_k1_n0 0
w_j8_k1_n0 0
w_j9_k1_n0 0
w_j0_k2_n0 0
w_j1_k2_n0 0
w_j2_k2_n0 7.6745505235165705e+00
w_j3_k2_n0 2.3452546690361370e-03
w_j4_k2_n0 7.1668295562257182e-07
w_j5_k2_n0 7.1648940359601964e-07
w_j6_k2_n0 0
w_j7_k2_n0 0
w_j8_k2_n0 0
w_j9_k2_n0 0
w_j0_k3_n0 0
w_j1_k3_n0 0
w_j2_k3_n0 0
w_j3_k3_n0 0
w_j4_k3_n0 0
w_j5_k3_n0 0
w_j6_k3_n0 0
w_j7_k3_n0 0
w_j8_k3_n0 0
w_j9_k3_n0 0
w_j0_k4_n0 1.6370904631912712e-11
w_j1_k4_n0 0
w_j2_k4_n0 0
w_j3_k4_n0 3.8198777474462992e-11
w_j4_k4_n0 2.5465851649641997e-11
w_j5_k4_n0 0
w_j6_k4_n0 0
w_j7_k4_n0 0
w_j8_k4_n0 0
w_j9_k4_n0 0
w_j0_k0_n1 2.5118999995592851e+04
w_j1_k0_n1 2.5118999991185705e+04
w_j2_k0_n1 0
w_j3_k0_n1 0
w_j4_k0_n1 0
w_j5_k0_n1 0
w_j6_k0_n1 0
w_j7_k0_n1 0
w_j8_k0_n1 0
w_j9_k0_n1 0
w_j0_k1_n1 0
w_j1_k1_n1 0
w_j2_k1_n1 0
w_j3_k1_n1 0
w_j4_k1_n1 0
w_j5_k1_n1 0
w_j6_k1_n1 0
w_j7_k1_n1 0
w_j8_k1_n1 0
w_j9_k1_n1 0
w_j0_k2_n1 0
w_j1_k2_n1 0
w_j2_k2_n1 7.6760784662026262e+00
w_j3_k2_n1 2.3457215908177921e-03
w_j4_k2_n1 7.1682564156686982e-07
w_j5_k2_n1 7.1662659063650486e-07
w_j6_k2_n1 0
w_j7_k2_n1 0
w_j8_k2_n1 0
w_j9_k2_n1 0
w_j0_k3_n1 0
w_j1_k3_n1 0
w_j2_k3_n1 0
w_j3_k3_n1 0
w_j4_k3_n1 0
w_j5_k3_n1 0
w_j6_k3_n1 0
w_j7_k3_n1 0
w_j8_k3_n1 0
w_j9_k3_n1 0
w_j0_k4_n1 1.8189894035458568e-11
w_j1_k4_n1 0
w_j2_k4_n1 4.9112713895738138e-11
w_j3_k4_n1 3.8198777474462992e-11
w_j4_k4_n1 2.0008883439004424e-11
w_j5_k4_n1 0
w_j6_k4_n1 0
w_j7_k4_n1 0
w_j8_k4_n1 0
w_j9_k4_n1 0
w_j0_k0_n2 2.5124999995591799e+04
w_j1_k0_n2 2.5124999991183598e+04
w_j2_k0_n2 0
w_j3_k0_n2 0
w_j4_k0_n2 0
w_j5_k0_n2 0
w_j6_k0_n2 0
w_j7_k0_n2 0
w_j8_k0_n2 0
w_j9_k0_n2 0
w_j0_k1_n2 0
w_j1_k1_n2 0
w_j2_k1_n2 0
w_j3_k1_n2 0
w_j4_k1_n2 0
w_j5_k1_n2 0
w_j6_k1_n2 0
w_j7_k1_n2 0
w_j8_k1_n2 0
w_j9_k1_n2 0
w_j0_k2_n2 0
w_j1_k2_n2 0
w_j2_k2_n2 7.6779119974258858e+00
w_j3_k2_n2 2.3462818969335413e-03
w_j4_k2_n2 7.1699686302564512e-07
w_j5_k2_n2 7.1678866760425884e-07
w_j6_k2_n2 0
w_j7_k2_n2 0
w_j8_k2_n2 0
w_j9_k2_n2 0
w_j0_k3_n2 0
w_j1_k3_n2 0
w_j2_k3_n2 0
w_j3_k3_n2 0
w_j4_k3_n2 0
w_j5_k3_n2 0
w_j6_k3_n2 0
w_j7_k3_n2 0
w_j8_k3_n2 0
w_j9_k3_n2 0
w_j0_k4_n2 1.8189894035458568e-11
w_j1_k4_n2 0
w_j2_k4_n2 0
w_j3_k4_n2 3.2741809263825423e-11
w_j4_k4_n2 1.0913936421275142e-11
w_j5_k4_n2 0
w_j6_k4_n2 0
w_j7_k4_n2 0
w_j8_k4_n2 0
w_j9_k4_n2 0
w_j0_k0_n3 2.5110999995594255e+04
w_j1_k0_n3 2.5110999991188513e+04
w_j2_k0_n3 0
w_j3_k0_n3 0
w_j4_k0_n3 0
w_j5_k0_n3 0
w_j6_k0_n3 0
w_j7_k0_n3 0
w_j8_k0_n3 0
w_j9_k0_n3 0
w_j0_k1_n3 0
w_j1_k1_n3 0
w_j2_k1_n3 0
w_j3_k1_n3 0
w_j4_k1_n3 0
w_j5_k1_n3 0
w_j6_k1_n3 0
w_j7_k1_n3 0
w_j8_k1_n3 0
w_j9_k1_n3 0
w_j0_k2_n3 0
w_j1_k2_n3 0
w_j2_k2_n3 7.6736337579049385e+00
w_j3_k2_n3 2.3449745159715911e-03
w_j4_k2_n3 7.1659734183390281e-07
w_j5_k2_n3 7.1638745006807184e-07
w_j6_k2_n3 0
w_j7_k2_n3 0
w_j8_k2_n3 0
w_j9_k2_n3 0
w_j0_k3_n3 0
w_j1_k3_n3 0
w_j2_k3_n3 0
w_j3_k3_n3 0
w_j4_k3_n3 0
w_j5_k3_n3 0
w_j6_k3_n3 0
w_j7_k3_n3 0
w_j8_k3_n3 0
w_j9_k3_n3 0
w_j0_k4_n3 1.8189894035458568e-11
w_j1_k4_n3 0
w_j2_k4_n3 0
w_j3_k4_n3 3.0922819860279567e-11
w_j4_k4_n3 9.0949470177292840e-12
w_j5_k4_n3 0
w_j6_k4_n3 0
w_j7_k4_n3 0
w_j8_k4_n3 0
w_j9_k4_n3 0
w_j0_k0_n4 2.5102999995595659e+04
w_j1_k0_n4 2.5102999991191326e+04
w_j2_k0_n4 0
w_j3_k0_n4 0
w_j4_k0_n4 0
w_j5_k0_n4 0
w_j6_k0_n4 0
w_j7_k0_n4 0
w_j8_k0_n4 0
w_j9_k0_n4 0
w_j0_k1_n4 0
w_j1_k1_n4 0
w_j2_k1_n4 0
w_j3_k1_n4 0
w_j4_k1_n4 0
w_j5_k1_n4 0
w_j6_k1_n4 0
w_j7_k1_n4 0
w_j8_k1_n4 0
w_j9_k1_n4 0
w_j0_k2_n4 0
w_j1_k2_n4 0
w_j2_k2_n4 7.6711890496072543e+00
w_j3_k2_n4 2.3442274411565197e-03
w_j4_k2_n4 7.1636904377803552e-07
w_j5_k2_n4 7.1616285864455604e-07
w_j6_k2_n4 0
w_j7_k2_n4 0
w_j8_k2_n4 0
w_j9_k2_n4 0
w_j0_k3_n4 0
w_j1_k3_n4 0
w_j2_k3_n4 0
w_j3_k3_n4 0
w_j4_k3_n4 0
w_j5_k3_n4 0
w_j6_k3_n4 0
w_j7_k3_n4 0
w_j8_k3_n4 0
w_j9_k3_n4 0
w_j0_k4_n4 1.8189894035458568e-11
w_j1_k4_n4 0
w_j2_k4_n4 4.5474735088646425e-11
w_j3_k4_n4 2.9103830456733710e-11
w_j4_k4_n4 1.2732925824820999e-11
w_j5_k4_n4 0
w_j6_k4_n4 0
w_j7_k4_n4 0
w_j8_k4_n4 0
w_j9_k4_n4 0
y_j0_k0 1
y_j1_k0 1
y_j2_k0 0
y_j3_k0 0
y_j4_k0 0
y_j5_k0 0
y_j6_k0 1
y_j7_k0 1
y_j8_k0 1
y_j9_k0 1
y_j0_k1 0
y_j1_k1 0
y_j2_k1 0
y_j3_k1 0
y_j4_k1 0
y_j5_k1 0
y_j6_k1 0
y_j7_k1 0
y_j8_k1 0
y_j9_k1 0
y_j0_k2 0
y_j1_k2 0
y_j2_k2 1
y_j3_k2 1
y_j4_k2 1
y_j5_k2 1
y_j6_k2 0
y_j7_k2 0
y_j8_k2 0
y_j9_k2 0
y_j0_k3 0
y_j1_k3 0
y_j2_k3 0
y_j3_k3 0
y_j4_k3 0
y_j5_k3 0
y_j6_k3 0
y_j7_k3 0
y_j8_k3 0
y_j9_k3 0
y_j0_k4 0
y_j1_k4 0
y_j2_k4 0
y_j3_k4 0
y_j4_k4 0
y_j5_k4 0
y_j6_k4 0
y_j7_k4 0
y_j8_k4 0
y_j9_k4 0
